certificates/rado_a13_c23_N42.cnf
c Rad2 upper bound instance: x1 + 13*x2 - x3 = 23, interval [1,42]
p cnf 42 220
1 2 4 0
-1 -2 -4 0
1 3 17 0
-1 -3 -17 0
1 4 30 0
-1 -4 -30 0
2 5 0
-2 -5 0
2 3 18 0
-2 -3 -18 0
2 4 31 0
-2 -4 -31 0
2 3 6 0
-2 -3 -6 0
3 19 0
-3 -19 0
3 4 32 0
-3 -4 -32 0
2 4 7 0
-2 -4 -7 0
3 4 20 0
-3 -4 -20 0
4 33 0
-4 -33 0
2 5 8 0
-2 -5 -8 0
3 5 21 0
-3 -5 -21 0
4 5 34 0
-4 -5 -34 0
2 6 9 0
-2 -6 -9 0
3 6 22 0
-3 -6 -22 0
4 6 35 0
-4 -6 -35 0
2 7 10 0
-2 -7 -10 0
3 7 23 0
-3 -7 -23 0
4 7 36 0
-4 -7 -36 0
2 8 11 0
-2 -8 -11 0
3 8 24 0
-3 -8 -24 0
4 8 37 0
-4 -8 -37 0
2 9 12 0
-2 -9 -12 0
3 9 25 0
-3 -9 -25 0
4 9 38 0
-4 -9 -38 0
2 10 13 0
-2 -10 -13 0
3 10 26 0
-3 -10 -26 0
4 10 39 0
-4 -10 -39 0
1 11 0
-1 -11 0
2 11 14 0
-2 -11 -14 0
3 11 27 0
-3 -11 -27 0
4 11 40 0
-4 -11 -40 0
1 2 12 0
-1 -2 -12 0
2 12 15 0
-2 -12 -15 0
3 12 28 0
-3 -12 -28 0
4 12 41 0
-4 -12 -41 0
1 3 13 0
-1 -3 -13 0
2 13 16 0
-2 -13 -16 0
3 13 29 0
-3 -13 -29 0
4 13 42 0
-4 -13 -42 0
1 4 14 0
-1 -4 -14 0
2 14 17 0
-2 -14 -17 0
3 14 30 0
-3 -14 -30 0
1 5 15 0
-1 -5 -15 0
2 15 18 0
-2 -15 -18 0
3 15 31 0
-3 -15 -31 0
1 6 16 0
-1 -6 -16 0
2 16 19 0
-2 -16 -19 0
3 16 32 0
-3 -16 -32 0
1 7 17 0
-1 -7 -17 0
2 17 20 0
-2 -17 -20 0
3 17 33 0
-3 -17 -33 0
1 8 18 0
-1 -8 -18 0
2 18 21 0
-2 -18 -21 0
3 18 34 0
-3 -18 -34 0
1 9 19 0
-1 -9 -19 0
2 19 22 0
-2 -19 -22 0
3 19 35 0
-3 -19 -35 0
1 10 20 0
-1 -10 -20 0
2 20 23 0
-2 -20 -23 0
3 20 36 0
-3 -20 -36 0
1 11 21 0
-1 -11 -21 0
2 21 24 0
-2 -21 -24 0
3 21 37 0
-3 -21 -37 0
1 12 22 0
-1 -12 -22 0
2 22 25 0
-2 -22 -25 0
3 22 38 0
-3 -22 -38 0
1 13 23 0
-1 -13 -23 0
2 23 26 0
-2 -23 -26 0
3 23 39 0
-3 -23 -39 0
1 14 24 0
-1 -14 -24 0
2 24 27 0
-2 -24 -27 0
3 24 40 0
-3 -24 -40 0
1 15 25 0
-1 -15 -25 0
2 25 28 0
-2 -25 -28 0
3 25 41 0
-3 -25 -41 0
1 16 26 0
-1 -16 -26 0
2 26 29 0
-2 -26 -29 0
3 26 42 0
-3 -26 -42 0
1 17 27 0
-1 -17 -27 0
2 27 30 0
-2 -27 -30 0
1 18 28 0
-1 -18 -28 0
2 28 31 0
-2 -28 -31 0
1 19 29 0
-1 -19 -29 0
2 29 32 0
-2 -29 -32 0
1 20 30 0
-1 -20 -30 0
2 30 33 0
-2 -30 -33 0
1 21 31 0
-1 -21 -31 0
2 31 34 0
-2 -31 -34 0
1 22 32 0
-1 -22 -32 0
2 32 35 0
-2 -32 -35 0
1 23 33 0
-1 -23 -33 0
2 33 36 0
-2 -33 -36 0
1 24 34 0
-1 -24 -34 0
2 34 37 0
-2 -34 -37 0
1 25 35 0
-1 -25 -35 0
2 35 38 0
-2 -35 -38 0
1 26 36 0
-1 -26 -36 0
2 36 39 0
-2 -36 -39 0
1 27 37 0
-1 -27 -37 0
2 37 40 0
-2 -37 -40 0
1 28 38 0
-1 -28 -38 0
2 38 41 0
-2 -38 -41 0
1 29 39 0
-1 -29 -39 0
2 39 42 0
-2 -39 -42 0
1 30 40 0
-1 -30 -40 0
1 31 41 0
-1 -31 -41 0
1 32 42 0
-1 -32 -42 0
