certificates/rado_a13_c23_N42.drat
4 2 -41 0
-39 -41 -42 0
-4 -40 0
4 39 -41 0
-2 -4 0
d -31 -2 -4 0
-4 -41 0
d -12 -4 -41 0
39 -41 0
d 4 39 -41 0
-41 -42 0
d -39 -41 -42 0
-4 -42 0
2 -10 4 0
-10 4 0
d 2 -10 4 0
-42 0
2 4 0
d 31 2 4 0
4 0
-33 0
-41 0
-40 0
-2 0
38 0
37 0
5 0
39 0
36 0
30 0
-9 0
-8 0
-34 0
-10 0
-7 0
-1 0
12 0
19 0
6 0
11 0
18 0
31 0
24 0
13 0
0
